Minimize
obj: 114y_1 + 1y_2 + 12y_3 + 100000y_4 + 100000y_5 + 53y_6 + 1y_7 + 12y_8 + 114y_9 + 1y_10 + 1y_11 + 100000y_12 + 12y_13 + 1y_14 + 100000y_15 + 1y_16 + 114y_17 + 1y_18 + 12y_19 + 100000y_20 + 100000y_21 + 1y_22 + 12y_23 + 1y_24 + 6y_25 + 100000y_26 + 1y_27 + 7y_28 + 1y_29 + 100000y_30 + 5y_31 + 6y_32 + 1y_33 + 100000y_34 + 1y_35 + 6y_36 + 4y_37 + 100000y_38 + 5y_39 + 1y_40 + 5y_41 + 100000y_42 + 1y_43 + 100000y_44 + 6y_45 + 6y_46 + 100000y_47 + 1y_48 + 14y_49 + 5y_50 + 1y_51 + 100000y_52 + 1y_53 + 100000y_54 + 7y_55 + 6y_56 + 1y_57 + 5y_58 + 100000y_59 + 1y_60 + 100000y_61 + 6y_62 + 1y_63 + 5y_64 + 100000y_65 + 6y_66 + 1y_67 + 7y_68 + 5y_69 + 100000y_70 + 1y_71 + 1y_72 + 6y_73 + 7y_74 + 100000y_75 + 1y_76 + 1y_77 + 5y_78 + 6y_79 + 100000y_80 + 1y_81 + 1y_82 + 6y_83 + 5y_84 + 6y_85 + 100000y_86 + 6y_87 + 1y_88 + 100000y_89 + 18y_90 + 100000y_91 + 5y_92 + 1y_93 + 100000y_94 + 5y_95 + 8y_96 + 6y_97 + 1y_98 + 1y_99 + 23y_100 + 100000y_101 + 2y_102 + 100000y_103 + 100000y_104 + 2y_105 + 1y_106 + 1y_107 + 100000y_108 + 2y_109 + 1y_110 + 28y_111 + 7y_112 + 1y_113 + 5y_114 + 100000y_115 + 1y_116 + 5y_117 + 100000y_118 + 100000y_119 + 1y_120 + 28y_121 + 5y_122 + 100000y_123 + 53y_124 + 100000y_125 + 1y_126 + 28y_127 + 7y_128 + 28y_129 + 5y_130 + 7y_131 + 7y_132 + 1y_133 + 28y_134 + 2y_135 + 7y_136 + 1y_137 + 5y_138 + 7y_139 + 1y_140 + 2y_141 + 1y_142 + 5y_143 + 2y_144 + 28y_145 + 1y_146 + 5y_147 + 5y_148 + 2y_149 + 1y_150 + 1y_151 + 1y_152 + 2y_153 + 1y_154 + 5y_155 + 5y_156 + 1y_157 + 1y_158 + 1y_159 + 27y_160 + 1y_161 + 6y_162 + 1y_163 + 27y_164 + 1y_165 + 6y_166 + 1y_167 + 1y_168 + 8y_169 + 6y_170 + 6y_171 + 5y_172 + 1y_173 + 6y_174 + 1y_175 + 5y_176 + 1y_177 + 1y_178 + 8y_179 + 5y_180 + 6y_181 + 8y_182 + 1y_183 + 6y_184 + 7y_185 + 1y_186 + 5y_187 + 7y_188 + 1y_189 + 5y_190 + 1y_191 + 8y_192 + 1y_193 + 5y_194 + 7y_195 + 6y_196 + 1y_197 + 5y_198 + 1y_199 + 5y_200 + 7y_201 + 1y_202 + 6y_203 + 1y_204 + 5y_205 + 7y_206 + 7y_207 + 5y_208 + 8y_209 + 1y_210 + 6y_211 + 1y_212 + 5y_213 + 1y_214 + 6y_215 + 1y_216 + 5y_217 + 1y_218 + 5y_219 + 1y_220 + 5y_221 + 7y_222 + 1y_223 + 6y_224 + 7y_225 + 1y_226 + 6y_227 + 6y_228 + 1y_229 + 5y_230 + 6y_231 + 1y_232 + 6y_233 + 7y_234 + 6y_235 + 5y_236 + 1y_237 + 1y_238 + 5y_239 + 6y_240 + 1y_241 + 1y_242 + 6y_243 + 7y_244 + 6y_245 + 1y_246 + 7y_247 + 6y_248 + 6y_249 + 1y_250 + 7y_251 + 1y_252 + 6y_253 + 6y_254 + 1y_255 + 7y_256 + 1y_257 + 7y_258 + 6y_259 + 1y_260 + 7y_261 + 18y_262 + 1y_263 + 1y_264 + 23y_265 + 1y_266 + 7y_267 + 6y_268 + 5y_269 + 1y_270 + 1y_271 + 6y_272 + 7y_273 + 1y_274 + 18y_275 + 18y_276 + 7y_277 + 1y_278 + 1y_279 + 7y_280 + 18y_281 + 1y_282 + 1y_283 + 7y_284 + 1y_285 + 1y_286 + 30y_287 + 7y_288 + 1y_289 + 7y_290 + 5y_291 + 1y_292 + 5y_293 + 7y_294 + 1y_295 + 1y_296 + 5y_297 + 1y_298 + 1y_299 + 4y_300 + 5y_301 + 5y_302 + 6y_303 + 1y_304 + 4y_305 + 5y_306 + 1y_307 + 18y_308 + 5y_309 + 1y_310 + 1y_311 + 6y_312 + 5y_313 + 1y_314 + 18y_315 + 1y_316 + 5y_317 + 1y_318 + 4y_319 + 6y_320 + 1y_321 + 18y_322 + 5y_323 + 14y_324 + 5y_325 + 6y_326 + 1y_327 + 4y_328 + 1y_329 + 6y_330 + 7y_331 + 5y_332 + 1y_333 + 1y_334 + 6y_335 + 1y_336 + 1y_337 + 7y_338 + 6y_339 + 1y_340 + 6y_341 + 14y_342 + 5y_343 + 1y_344 + 4y_345 + 7y_346 + 6y_347 + 6y_348 + 1y_349 + 7y_350 + 4y_351 + 1y_352 + 1y_353 + 7y_354 + 6y_355 + 1y_356 + 6y_357 + 7y_358 + 14y_359 + 1y_360 + 6y_361 + 7y_362 + 4y_363 + 1y_364 + 6y_365 + 7y_366 + 30y_367 + 1y_368 + 5y_369 + 14y_370 + 4y_371 + 7y_372 + 1y_373 + 6y_374 + 6y_375 + 7y_376 + 1y_377 + 1y_378 + 6y_379 + 1y_380 + 5y_381 + 1y_382 + 1y_383 + 7y_384 + 6y_385 + 5y_386 + 1y_387 + 1y_388 + 6y_389 + 4y_390 + 5y_391 + 1y_392 + 6y_393 + 5y_394 + 6y_395 + 1y_396 + 1y_397 + 1y_398 + 5y_399 + 4y_400 + 6y_401 + 5y_402 + 1y_403 + 1y_404 + 6y_405 + 14y_406 + 1y_407 + 114y_408 + 5y_409 + 4y_410 + 5y_411 + 1y_412 + 114y_413 + 1y_414 + 114y_415 + 1y_416 + 5y_417 + 1y_418 + 1y_419 + 12y_420 + 100000y_421 + 100000y_422 + 100000y_423 + 100000y_424 + 100000y_425 + 100000y_426 + 100000y_427 + 100000y_428 + 100000y_429 + 100000y_430 + 100000y_431 + 100000y_432 + 100000y_433 + 100000y_434 + 100000y_435 + 100000y_436 + 100000y_437 + 100000y_438 + 100000y_439 + 100000y_440 + 100000y_441 + 100000y_442 + 100000y_443 + 100000y_444 + 100000y_445 + 100000y_446 + 100000y_447 + 100000y_448 + 100000y_449 + 100000y_450 + 100000y_451 + 100000y_452 + 100000y_453 + 100000y_454
Subject To
x_455 = 10
x_464 = 1
x_465 = 1
x_456 = 1
x_457 = 1
x_458 = 1
x_459 = 1
x_460 = 1
x_461 = 1
x_462 = 1
x_463 = 1
x_1 - 11y_1 <= 0
x_2 - 11y_2 <= 0
x_3 - 11y_3 <= 0
x_4 - 11y_4 <= 0
x_5 - 11y_5 <= 0
x_6 - 11y_6 <= 0
x_7 - 11y_7 <= 0
x_8 - 11y_8 <= 0
x_9 - 11y_9 <= 0
x_10 - 11y_10 <= 0
x_11 - 11y_11 <= 0
x_12 - 11y_12 <= 0
x_13 - 11y_13 <= 0
x_14 - 11y_14 <= 0
x_15 - 11y_15 <= 0
x_16 - 11y_16 <= 0
x_17 - 11y_17 <= 0
x_18 - 11y_18 <= 0
x_19 - 11y_19 <= 0
x_20 - 11y_20 <= 0
x_21 - 11y_21 <= 0
x_22 - 11y_22 <= 0
x_23 - 11y_23 <= 0
x_24 - 11y_24 <= 0
x_25 - 11y_25 <= 0
x_26 - 11y_26 <= 0
x_27 - 11y_27 <= 0
x_28 - 11y_28 <= 0
x_29 - 11y_29 <= 0
x_30 - 11y_30 <= 0
x_31 - 11y_31 <= 0
x_32 - 11y_32 <= 0
x_33 - 11y_33 <= 0
x_34 - 11y_34 <= 0
x_35 - 11y_35 <= 0
x_36 - 11y_36 <= 0
x_37 - 11y_37 <= 0
x_38 - 11y_38 <= 0
x_39 - 11y_39 <= 0
x_40 - 11y_40 <= 0
x_41 - 11y_41 <= 0
x_42 - 11y_42 <= 0
x_43 - 11y_43 <= 0
x_44 - 11y_44 <= 0
x_45 - 11y_45 <= 0
x_46 - 11y_46 <= 0
x_47 - 11y_47 <= 0
x_48 - 11y_48 <= 0
x_49 - 11y_49 <= 0
x_50 - 11y_50 <= 0
x_51 - 11y_51 <= 0
x_52 - 11y_52 <= 0
x_53 - 11y_53 <= 0
x_54 - 11y_54 <= 0
x_55 - 11y_55 <= 0
x_56 - 11y_56 <= 0
x_57 - 11y_57 <= 0
x_58 - 11y_58 <= 0
x_59 - 11y_59 <= 0
x_60 - 11y_60 <= 0
x_61 - 11y_61 <= 0
x_62 - 11y_62 <= 0
x_63 - 11y_63 <= 0
x_64 - 11y_64 <= 0
x_65 - 11y_65 <= 0
x_66 - 11y_66 <= 0
x_67 - 11y_67 <= 0
x_68 - 11y_68 <= 0
x_69 - 11y_69 <= 0
x_70 - 11y_70 <= 0
x_71 - 11y_71 <= 0
x_72 - 11y_72 <= 0
x_73 - 11y_73 <= 0
x_74 - 11y_74 <= 0
x_75 - 11y_75 <= 0
x_76 - 11y_76 <= 0
x_77 - 11y_77 <= 0
x_78 - 11y_78 <= 0
x_79 - 11y_79 <= 0
x_80 - 11y_80 <= 0
x_81 - 11y_81 <= 0
x_82 - 11y_82 <= 0
x_83 - 11y_83 <= 0
x_84 - 11y_84 <= 0
x_85 - 11y_85 <= 0
x_86 - 11y_86 <= 0
x_87 - 11y_87 <= 0
x_88 - 11y_88 <= 0
x_89 - 11y_89 <= 0
x_90 - 11y_90 <= 0
x_91 - 11y_91 <= 0
x_92 - 11y_92 <= 0
x_93 - 11y_93 <= 0
x_94 - 11y_94 <= 0
x_95 - 11y_95 <= 0
x_96 - 11y_96 <= 0
x_97 - 11y_97 <= 0
x_98 - 11y_98 <= 0
x_99 - 11y_99 <= 0
x_100 - 11y_100 <= 0
x_101 - 11y_101 <= 0
x_102 - 11y_102 <= 0
x_103 - 11y_103 <= 0
x_104 - 11y_104 <= 0
x_105 - 11y_105 <= 0
x_106 - 11y_106 <= 0
x_107 - 11y_107 <= 0
x_108 - 11y_108 <= 0
x_109 - 11y_109 <= 0
x_110 - 11y_110 <= 0
x_111 - 11y_111 <= 0
x_112 - 11y_112 <= 0
x_113 - 11y_113 <= 0
x_114 - 11y_114 <= 0
x_115 - 11y_115 <= 0
x_116 - 11y_116 <= 0
x_117 - 11y_117 <= 0
x_118 - 11y_118 <= 0
x_119 - 11y_119 <= 0
x_120 - 11y_120 <= 0
x_121 - 11y_121 <= 0
x_122 - 11y_122 <= 0
x_123 - 11y_123 <= 0
x_124 - 11y_124 <= 0
x_125 - 11y_125 <= 0
x_126 - 11y_126 <= 0
x_127 - 11y_127 <= 0
x_128 - 11y_128 <= 0
x_129 - 11y_129 <= 0
x_130 - 11y_130 <= 0
x_131 - 11y_131 <= 0
x_132 - 11y_132 <= 0
x_133 - 11y_133 <= 0
x_134 - 11y_134 <= 0
x_135 - 11y_135 <= 0
x_136 - 11y_136 <= 0
x_137 - 11y_137 <= 0
x_138 - 11y_138 <= 0
x_139 - 11y_139 <= 0
x_140 - 11y_140 <= 0
x_141 - 11y_141 <= 0
x_142 - 11y_142 <= 0
x_143 - 11y_143 <= 0
x_144 - 11y_144 <= 0
x_145 - 11y_145 <= 0
x_146 - 11y_146 <= 0
x_147 - 11y_147 <= 0
x_148 - 11y_148 <= 0
x_149 - 11y_149 <= 0
x_150 - 11y_150 <= 0
x_151 - 11y_151 <= 0
x_152 - 11y_152 <= 0
x_153 - 11y_153 <= 0
x_154 - 11y_154 <= 0
x_155 - 11y_155 <= 0
x_156 - 11y_156 <= 0
x_157 - 11y_157 <= 0
x_158 - 11y_158 <= 0
x_159 - 11y_159 <= 0
x_160 - 11y_160 <= 0
x_161 - 11y_161 <= 0
x_162 - 11y_162 <= 0
x_163 - 11y_163 <= 0
x_164 - 11y_164 <= 0
x_165 - 11y_165 <= 0
x_166 - 11y_166 <= 0
x_167 - 11y_167 <= 0
x_168 - 11y_168 <= 0
x_169 - 11y_169 <= 0
x_170 - 11y_170 <= 0
x_171 - 11y_171 <= 0
x_172 - 11y_172 <= 0
x_173 - 11y_173 <= 0
x_174 - 11y_174 <= 0
x_175 - 11y_175 <= 0
x_176 - 11y_176 <= 0
x_177 - 11y_177 <= 0
x_178 - 11y_178 <= 0
x_179 - 11y_179 <= 0
x_180 - 11y_180 <= 0
x_181 - 11y_181 <= 0
x_182 - 11y_182 <= 0
x_183 - 11y_183 <= 0
x_184 - 11y_184 <= 0
x_185 - 11y_185 <= 0
x_186 - 11y_186 <= 0
x_187 - 11y_187 <= 0
x_188 - 11y_188 <= 0
x_189 - 11y_189 <= 0
x_190 - 11y_190 <= 0
x_191 - 11y_191 <= 0
x_192 - 11y_192 <= 0
x_193 - 11y_193 <= 0
x_194 - 11y_194 <= 0
x_195 - 11y_195 <= 0
x_196 - 11y_196 <= 0
x_197 - 11y_197 <= 0
x_198 - 11y_198 <= 0
x_199 - 11y_199 <= 0
x_200 - 11y_200 <= 0
x_201 - 11y_201 <= 0
x_202 - 11y_202 <= 0
x_203 - 11y_203 <= 0
x_204 - 11y_204 <= 0
x_205 - 11y_205 <= 0
x_206 - 11y_206 <= 0
x_207 - 11y_207 <= 0
x_208 - 11y_208 <= 0
x_209 - 11y_209 <= 0
x_210 - 11y_210 <= 0
x_211 - 11y_211 <= 0
x_212 - 11y_212 <= 0
x_213 - 11y_213 <= 0
x_214 - 11y_214 <= 0
x_215 - 11y_215 <= 0
x_216 - 11y_216 <= 0
x_217 - 11y_217 <= 0
x_218 - 11y_218 <= 0
x_219 - 11y_219 <= 0
x_220 - 11y_220 <= 0
x_221 - 11y_221 <= 0
x_222 - 11y_222 <= 0
x_223 - 11y_223 <= 0
x_224 - 11y_224 <= 0
x_225 - 11y_225 <= 0
x_226 - 11y_226 <= 0
x_227 - 11y_227 <= 0
x_228 - 11y_228 <= 0
x_229 - 11y_229 <= 0
x_230 - 11y_230 <= 0
x_231 - 11y_231 <= 0
x_232 - 11y_232 <= 0
x_233 - 11y_233 <= 0
x_234 - 11y_234 <= 0
x_235 - 11y_235 <= 0
x_236 - 11y_236 <= 0
x_237 - 11y_237 <= 0
x_238 - 11y_238 <= 0
x_239 - 11y_239 <= 0
x_240 - 11y_240 <= 0
x_241 - 11y_241 <= 0
x_242 - 11y_242 <= 0
x_243 - 11y_243 <= 0
x_244 - 11y_244 <= 0
x_245 - 11y_245 <= 0
x_246 - 11y_246 <= 0
x_247 - 11y_247 <= 0
x_248 - 11y_248 <= 0
x_249 - 11y_249 <= 0
x_250 - 11y_250 <= 0
x_251 - 11y_251 <= 0
x_252 - 11y_252 <= 0
x_253 - 11y_253 <= 0
x_254 - 11y_254 <= 0
x_255 - 11y_255 <= 0
x_256 - 11y_256 <= 0
x_257 - 11y_257 <= 0
x_258 - 11y_258 <= 0
x_259 - 11y_259 <= 0
x_260 - 11y_260 <= 0
x_261 - 11y_261 <= 0
x_262 - 11y_262 <= 0
x_263 - 11y_263 <= 0
x_264 - 11y_264 <= 0
x_265 - 11y_265 <= 0
x_266 - 11y_266 <= 0
x_267 - 11y_267 <= 0
x_268 - 11y_268 <= 0
x_269 - 11y_269 <= 0
x_270 - 11y_270 <= 0
x_271 - 11y_271 <= 0
x_272 - 11y_272 <= 0
x_273 - 11y_273 <= 0
x_274 - 11y_274 <= 0
x_275 - 11y_275 <= 0
x_276 - 11y_276 <= 0
x_277 - 11y_277 <= 0
x_278 - 11y_278 <= 0
x_279 - 11y_279 <= 0
x_280 - 11y_280 <= 0
x_281 - 11y_281 <= 0
x_282 - 11y_282 <= 0
x_283 - 11y_283 <= 0
x_284 - 11y_284 <= 0
x_285 - 11y_285 <= 0
x_286 - 11y_286 <= 0
x_287 - 11y_287 <= 0
x_288 - 11y_288 <= 0
x_289 - 11y_289 <= 0
x_290 - 11y_290 <= 0
x_291 - 11y_291 <= 0
x_292 - 11y_292 <= 0
x_293 - 11y_293 <= 0
x_294 - 11y_294 <= 0
x_295 - 11y_295 <= 0
x_296 - 11y_296 <= 0
x_297 - 11y_297 <= 0
x_298 - 11y_298 <= 0
x_299 - 11y_299 <= 0
x_300 - 11y_300 <= 0
x_301 - 11y_301 <= 0
x_302 - 11y_302 <= 0
x_303 - 11y_303 <= 0
x_304 - 11y_304 <= 0
x_305 - 11y_305 <= 0
x_306 - 11y_306 <= 0
x_307 - 11y_307 <= 0
x_308 - 11y_308 <= 0
x_309 - 11y_309 <= 0
x_310 - 11y_310 <= 0
x_311 - 11y_311 <= 0
x_312 - 11y_312 <= 0
x_313 - 11y_313 <= 0
x_314 - 11y_314 <= 0
x_315 - 11y_315 <= 0
x_316 - 11y_316 <= 0
x_317 - 11y_317 <= 0
x_318 - 11y_318 <= 0
x_319 - 11y_319 <= 0
x_320 - 11y_320 <= 0
x_321 - 11y_321 <= 0
x_322 - 11y_322 <= 0
x_323 - 11y_323 <= 0
x_324 - 11y_324 <= 0
x_325 - 11y_325 <= 0
x_326 - 11y_326 <= 0
x_327 - 11y_327 <= 0
x_328 - 11y_328 <= 0
x_329 - 11y_329 <= 0
x_330 - 11y_330 <= 0
x_331 - 11y_331 <= 0
x_332 - 11y_332 <= 0
x_333 - 11y_333 <= 0
x_334 - 11y_334 <= 0
x_335 - 11y_335 <= 0
x_336 - 11y_336 <= 0
x_337 - 11y_337 <= 0
x_338 - 11y_338 <= 0
x_339 - 11y_339 <= 0
x_340 - 11y_340 <= 0
x_341 - 11y_341 <= 0
x_342 - 11y_342 <= 0
x_343 - 11y_343 <= 0
x_344 - 11y_344 <= 0
x_345 - 11y_345 <= 0
x_346 - 11y_346 <= 0
x_347 - 11y_347 <= 0
x_348 - 11y_348 <= 0
x_349 - 11y_349 <= 0
x_350 - 11y_350 <= 0
x_351 - 11y_351 <= 0
x_352 - 11y_352 <= 0
x_353 - 11y_353 <= 0
x_354 - 11y_354 <= 0
x_355 - 11y_355 <= 0
x_356 - 11y_356 <= 0
x_357 - 11y_357 <= 0
x_358 - 11y_358 <= 0
x_359 - 11y_359 <= 0
x_360 - 11y_360 <= 0
x_361 - 11y_361 <= 0
x_362 - 11y_362 <= 0
x_363 - 11y_363 <= 0
x_364 - 11y_364 <= 0
x_365 - 11y_365 <= 0
x_366 - 11y_366 <= 0
x_367 - 11y_367 <= 0
x_368 - 11y_368 <= 0
x_369 - 11y_369 <= 0
x_370 - 11y_370 <= 0
x_371 - 11y_371 <= 0
x_372 - 11y_372 <= 0
x_373 - 11y_373 <= 0
x_374 - 11y_374 <= 0
x_375 - 11y_375 <= 0
x_376 - 11y_376 <= 0
x_377 - 11y_377 <= 0
x_378 - 11y_378 <= 0
x_379 - 11y_379 <= 0
x_380 - 11y_380 <= 0
x_381 - 11y_381 <= 0
x_382 - 11y_382 <= 0
x_383 - 11y_383 <= 0
x_384 - 11y_384 <= 0
x_385 - 11y_385 <= 0
x_386 - 11y_386 <= 0
x_387 - 11y_387 <= 0
x_388 - 11y_388 <= 0
x_389 - 11y_389 <= 0
x_390 - 11y_390 <= 0
x_391 - 11y_391 <= 0
x_392 - 11y_392 <= 0
x_393 - 11y_393 <= 0
x_394 - 11y_394 <= 0
x_395 - 11y_395 <= 0
x_396 - 11y_396 <= 0
x_397 - 11y_397 <= 0
x_398 - 11y_398 <= 0
x_399 - 11y_399 <= 0
x_400 - 11y_400 <= 0
x_401 - 11y_401 <= 0
x_402 - 11y_402 <= 0
x_403 - 11y_403 <= 0
x_404 - 11y_404 <= 0
x_405 - 11y_405 <= 0
x_406 - 11y_406 <= 0
x_407 - 11y_407 <= 0
x_408 - 11y_408 <= 0
x_409 - 11y_409 <= 0
x_410 - 11y_410 <= 0
x_411 - 11y_411 <= 0
x_412 - 11y_412 <= 0
x_413 - 11y_413 <= 0
x_414 - 11y_414 <= 0
x_415 - 11y_415 <= 0
x_416 - 11y_416 <= 0
x_417 - 11y_417 <= 0
x_418 - 11y_418 <= 0
x_419 - 11y_419 <= 0
x_420 - 11y_420 <= 0
x_421 - 11y_421 <= 0
x_422 - 11y_422 <= 0
x_423 - 11y_423 <= 0
x_424 - 11y_424 <= 0
x_425 - 11y_425 <= 0
x_426 - 11y_426 <= 0
x_427 - 11y_427 <= 0
x_428 - 11y_428 <= 0
x_429 - 11y_429 <= 0
x_430 - 11y_430 <= 0
x_431 - 11y_431 <= 0
x_432 - 11y_432 <= 0
x_433 - 11y_433 <= 0
x_434 - 11y_434 <= 0
x_435 - 11y_435 <= 0
x_436 - 11y_436 <= 0
x_437 - 11y_437 <= 0
x_438 - 11y_438 <= 0
x_439 - 11y_439 <= 0
x_440 - 11y_440 <= 0
x_441 - 11y_441 <= 0
x_442 - 11y_442 <= 0
x_443 - 11y_443 <= 0
x_444 - 11y_444 <= 0
x_445 - 11y_445 <= 0
x_446 - 11y_446 <= 0
x_447 - 11y_447 <= 0
x_448 - 11y_448 <= 0
x_449 - 11y_449 <= 0
x_450 - 11y_450 <= 0
x_451 - 11y_451 <= 0
x_452 - 11y_452 <= 0
x_453 - 11y_453 <= 0
x_454 - 11y_454 <= 0
x_3 - x_420 +  x_4 - x_422 +  x_1 - x_415 +  x_2 - x_11 = 0
x_6 - x_124 +  x_7 - x_419 +  x_5 - x_421 = 0
x_9 - x_413 +  x_12 - x_424 +  x_10 - x_18 +  x_11 - x_2 +  x_8 - x_13 = 0
x_13 - x_8 +  x_15 - x_423 +  x_16 - x_22 +  x_14 - x_418 = 0
x_18 - x_10 +  x_19 - x_23 +  x_17 - x_408 +  x_20 - x_426 = 0
x_21 - x_425 +  x_23 - x_19 +  x_22 - x_16 = 0
x_27 - x_364 +  x_26 - x_427 +  x_24 - x_356 +  x_25 - x_379 +  x_28 - x_338 = 0
x_31 - x_381 +  x_29 - x_398 +  x_30 - x_428 = 0
x_33 - x_382 +  x_32 - x_357 +  x_34 - x_430 = 0
x_36 - x_365 +  x_37 - x_390 +  x_38 - x_429 +  x_39 - x_399 +  x_35 - x_380 = 0
x_41 - x_386 +  x_42 - x_433 +  x_40 - x_368 = 0
x_45 - x_389 +  x_43 - x_404 +  x_44 - x_432 = 0
x_46 - x_405 +  x_47 - x_431 +  x_48 - x_388 +  x_50 - x_369 +  x_49 - x_342 = 0
x_52 - x_434 +  x_51 - x_387 = 0
x_53 - x_242 +  x_55 - x_74 +  x_57 - x_255 +  x_54 - x_436 +  x_56 - x_268 = 0
x_60 - x_292 +  x_59 - x_437 +  x_58 - x_269 = 0
x_63 - x_270 +  x_61 - x_435 +  x_62 - x_243 = 0
x_64 - x_291 +  x_67 - x_271 +  x_66 - x_254 +  x_65 - x_438 = 0
x_72 - x_202 +  x_71 - x_204 +  x_70 - x_440 +  x_69 - x_213 +  x_68 - x_188 = 0
x_77 - x_232 +  x_74 - x_55 +  x_75 - x_441 +  x_73 - x_211 +  x_76 - x_226 = 0
x_80 - x_439 +  x_78 - x_200 +  x_81 - x_214 +  x_79 - x_224 = 0
x_83 - x_228 +  x_86 - x_442 +  x_82 - x_212 +  x_84 - x_205 +  x_85 - x_233 = 0
x_89 - x_445 +  x_87 - x_196 +  x_88 - x_183 = 0
x_92 - x_198 +  x_91 - x_443 +  x_93 - x_210 +  x_90 - x_262 = 0
x_97 - x_184 +  x_98 - x_199 +  x_95 - x_208 +  x_96 - x_179 +  x_94 - x_444 = 0
x_100 - x_265 +  x_101 - x_446 +  x_99 - x_197 = 0
x_102 - x_135 +  x_103 - x_449 = 0
x_104 - x_447 +  x_105 - x_109 +  x_106 - x_151 = 0
x_107 - x_152 +  x_110 - x_161 +  x_108 - x_448 +  x_109 - x_105 = 0
x_115 - x_450 +  x_111 - x_129 +  x_112 - x_132 +  x_113 - x_140 +  x_114 - x_147 = 0
x_118 - x_451 +  x_117 - x_156 +  x_116 - x_142 = 0
x_119 - x_452 +  x_120 - x_126 = 0
x_121 - x_145 +  x_123 - x_453 +  x_122 - x_130 = 0
x_124 - x_6 +  x_125 - x_454 = 0
x_126 - x_120 +  x_128 - x_131 +  x_127 - x_134 = 0
x_131 - x_128 +  x_130 - x_122 +  x_129 - x_111 = 0
x_133 - x_137 +  x_132 - x_112 +  x_134 - x_127 = 0
x_137 - x_133 +  x_136 - x_139 +  x_135 - x_102 = 0
x_138 - x_148 +  x_139 - x_136 +  x_141 - x_144 +  x_140 - x_113 = 0
x_143 - x_155 +  x_142 - x_116 +  x_144 - x_141 = 0
x_147 - x_114 +  x_145 - x_121 +  x_146 - x_150 = 0
x_150 - x_146 +  x_148 - x_138 +  x_149 - x_153 +  x_151 - x_106 = 0
x_153 - x_149 +  x_154 - x_158 +  x_152 - x_107 +  x_155 - x_143 = 0
x_156 - x_117 +  x_158 - x_154 +  x_157 - x_159 = 0
x_159 - x_157 +  x_161 - x_110 +  x_160 - x_164 = 0
x_162 - x_171 +  x_163 - x_167 +  x_164 - x_160 = 0
x_165 - x_168 +  x_167 - x_163 +  x_166 - x_174 = 0
x_170 - x_181 +  x_168 - x_165 +  x_169 - x_182 = 0
x_171 - x_162 +  x_172 - x_187 +  x_173 - x_177 = 0
x_174 - x_166 +  x_175 - x_178 +  x_176 - x_190 +  x_177 - x_173 = 0
x_179 - x_96 +  x_180 - x_194 +  x_178 - x_175 +  x_181 - x_170 = 0
x_182 - x_169 +  x_184 - x_97 +  x_183 - x_88 = 0
x_185 - x_201 +  x_186 - x_191 +  x_187 - x_172 = 0
x_189 - x_193 +  x_188 - x_68 +  x_191 - x_186 +  x_190 - x_176 = 0
x_195 - x_206 +  x_194 - x_180 +  x_192 - x_209 +  x_193 - x_189 = 0
x_196 - x_87 +  x_198 - x_92 +  x_197 - x_99 +  x_199 - x_98 = 0
x_201 - x_185 +  x_200 - x_78 +  x_202 - x_72 = 0
x_204 - x_71 +  x_205 - x_84 +  x_206 - x_195 +  x_203 - x_215 = 0
x_208 - x_95 +  x_210 - x_93 +  x_209 - x_192 +  x_207 - x_222 = 0
x_214 - x_81 +  x_213 - x_69 +  x_211 - x_73 +  x_212 - x_82 = 0
x_215 - x_203 +  x_216 - x_220 +  x_217 - x_230 = 0
x_220 - x_216 +  x_219 - x_236 +  x_218 - x_223 = 0
x_223 - x_218 +  x_222 - x_207 +  x_221 - x_239 = 0
x_224 - x_79 +  x_225 - x_244 +  x_226 - x_76 = 0
x_229 - x_237 +  x_227 - x_245 +  x_230 - x_217 +  x_228 - x_83 = 0
x_233 - x_85 +  x_231 - x_248 +  x_232 - x_77 +  x_234 - x_256 = 0
x_237 - x_229 +  x_235 - x_249 +  x_236 - x_219 +  x_238 - x_241 = 0
x_239 - x_221 +  x_240 - x_259 +  x_241 - x_238 = 0
x_244 - x_225 +  x_242 - x_53 +  x_243 - x_62 = 0
x_248 - x_231 +  x_246 - x_250 +  x_247 - x_273 +  x_245 - x_227 = 0
x_250 - x_246 +  x_251 - x_277 +  x_252 - x_260 +  x_249 - x_235 = 0
x_254 - x_66 +  x_253 - x_272 +  x_255 - x_57 +  x_256 - x_234 = 0
x_260 - x_252 +  x_257 - x_263 +  x_258 - x_280 +  x_259 - x_240 = 0
x_262 - x_90 +  x_264 - x_266 +  x_261 - x_284 +  x_263 - x_257 = 0
x_265 - x_100 +  x_267 - x_288 +  x_266 - x_264 = 0
x_271 - x_67 +  x_268 - x_56 +  x_270 - x_63 +  x_269 - x_58 = 0
x_275 - x_308 +  x_274 - x_278 +  x_273 - x_247 +  x_272 - x_253 = 0
x_276 - x_315 +  x_277 - x_251 +  x_279 - x_283 +  x_278 - x_274 = 0
x_281 - x_322 +  x_282 - x_286 +  x_280 - x_258 +  x_283 - x_279 = 0
x_285 - x_289 +  x_284 - x_261 +  x_286 - x_282 = 0
x_287 - x_367 +  x_288 - x_267 +  x_289 - x_285 = 0
x_290 - x_294 +  x_291 - x_64 +  x_292 - x_60 = 0
x_293 - x_302 +  x_294 - x_290 +  x_295 - x_298 = 0
x_297 - x_309 +  x_298 - x_295 +  x_296 - x_299 = 0
x_301 - x_317 +  x_299 - x_296 +  x_300 - x_305 = 0
x_303 - x_330 +  x_304 - x_310 +  x_302 - x_293 = 0
x_306 - x_325 +  x_307 - x_314 +  x_305 - x_300 +  x_308 - x_275 = 0
x_310 - x_304 +  x_311 - x_318 +  x_312 - x_339 +  x_309 - x_297 = 0
x_313 - x_332 +  x_316 - x_321 +  x_315 - x_276 +  x_314 - x_307 = 0
x_317 - x_301 +  x_318 - x_311 +  x_319 - x_328 +  x_320 - x_347 = 0
x_322 - x_281 +  x_324 - x_370 +  x_321 - x_316 +  x_323 - x_343 = 0
x_326 - x_348 +  x_325 - x_306 +  x_328 - x_319 +  x_327 - x_334 = 0
x_331 - x_358 +  x_329 - x_336 +  x_330 - x_303 = 0
x_334 - x_327 +  x_332 - x_313 +  x_333 - x_340 +  x_335 - x_355 = 0
x_336 - x_329 +  x_339 - x_312 +  x_337 - x_344 +  x_338 - x_28 = 0
x_340 - x_333 +  x_343 - x_323 +  x_341 - x_361 +  x_342 - x_49 = 0
x_346 - x_366 +  x_344 - x_337 +  x_345 - x_351 +  x_347 - x_320 = 0
x_348 - x_326 +  x_351 - x_345 +  x_350 - x_372 +  x_349 - x_353 = 0
x_354 - x_376 +  x_352 - x_360 +  x_353 - x_349 +  x_355 - x_335 = 0
x_358 - x_331 +  x_357 - x_32 +  x_356 - x_24 = 0
x_361 - x_341 +  x_360 - x_352 +  x_359 - x_406 +  x_362 - x_384 = 0
x_363 - x_371 +  x_364 - x_27 +  x_366 - x_346 +  x_365 - x_36 = 0
x_368 - x_40 +  x_370 - x_324 +  x_367 - x_287 +  x_369 - x_50 = 0
x_371 - x_363 +  x_373 - x_377 +  x_372 - x_350 +  x_374 - x_393 = 0
x_376 - x_354 +  x_377 - x_373 +  x_378 - x_383 +  x_375 - x_395 = 0
x_381 - x_31 +  x_380 - x_35 +  x_379 - x_25 +  x_382 - x_33 = 0
x_385 - x_401 +  x_384 - x_362 +  x_383 - x_378 = 0
x_388 - x_48 +  x_389 - x_45 +  x_387 - x_51 +  x_386 - x_41 = 0
x_390 - x_37 +  x_392 - x_396 +  x_393 - x_374 +  x_391 - x_409 = 0
x_396 - x_392 +  x_397 - x_403 +  x_394 - x_411 +  x_395 - x_375 = 0
x_399 - x_39 +  x_398 - x_29 +  x_400 - x_410 = 0
x_403 - x_397 +  x_401 - x_385 +  x_402 - x_417 = 0
x_406 - x_359 +  x_405 - x_46 +  x_404 - x_43 = 0
x_409 - x_391 +  x_407 - x_412 +  x_410 - x_400 +  x_408 - x_17 = 0
x_414 - x_416 +  x_413 - x_9 +  x_411 - x_394 +  x_412 - x_407 = 0
x_417 - x_402 +  x_416 - x_414 +  x_415 - x_1 = 0
x_419 - x_7 +  x_418 - x_14 +  x_420 - x_3 = 0
x_421 - x_5 - x_456 +  x_422 - x_4 = 0
x_424 - x_12 - x_457 +  x_423 - x_15 = 0
-x_458 +  x_425 - x_21 +  x_426 - x_20 = 0
x_427 - x_26 +  x_428 - x_30 +  x_429 - x_38 +  x_430 - x_34 - x_459 = 0
x_434 - x_52 +  x_432 - x_44 +  x_431 - x_47 - x_460 +  x_433 - x_42 = 0
x_435 - x_61 +  x_436 - x_54 - x_461 +  x_437 - x_59 +  x_438 - x_65 = 0
x_441 - x_75 - x_462 +  x_439 - x_80 +  x_440 - x_70 +  x_442 - x_86 = 0
x_444 - x_94 - x_463 +  x_443 - x_91 +  x_446 - x_101 +  x_445 - x_89 = 0
-x_464 +  x_449 - x_103 +  x_450 - x_115 +  x_451 - x_118 +  x_448 - x_108 +  x_447 - x_104 = 0
x_453 - x_123 +  x_452 - x_119 - x_465 = 0
x_454 - x_125 +  x_455 = 0
Bounds
x_1 >= 0
x_2 >= 0
x_3 >= 0
x_4 >= 0
x_5 >= 0
x_6 >= 0
x_7 >= 0
x_8 >= 0
x_9 >= 0
x_10 >= 0
x_11 >= 0
x_12 >= 0
x_13 >= 0
x_14 >= 0
x_15 >= 0
x_16 >= 0
x_17 >= 0
x_18 >= 0
x_19 >= 0
x_20 >= 0
x_21 >= 0
x_22 >= 0
x_23 >= 0
x_24 >= 0
x_25 >= 0
x_26 >= 0
x_27 >= 0
x_28 >= 0
x_29 >= 0
x_30 >= 0
x_31 >= 0
x_32 >= 0
x_33 >= 0
x_34 >= 0
x_35 >= 0
x_36 >= 0
x_37 >= 0
x_38 >= 0
x_39 >= 0
x_40 >= 0
x_41 >= 0
x_42 >= 0
x_43 >= 0
x_44 >= 0
x_45 >= 0
x_46 >= 0
x_47 >= 0
x_48 >= 0
x_49 >= 0
x_50 >= 0
x_51 >= 0
x_52 >= 0
x_53 >= 0
x_54 >= 0
x_55 >= 0
x_56 >= 0
x_57 >= 0
x_58 >= 0
x_59 >= 0
x_60 >= 0
x_61 >= 0
x_62 >= 0
x_63 >= 0
x_64 >= 0
x_65 >= 0
x_66 >= 0
x_67 >= 0
x_68 >= 0
x_69 >= 0
x_70 >= 0
x_71 >= 0
x_72 >= 0
x_73 >= 0
x_74 >= 0
x_75 >= 0
x_76 >= 0
x_77 >= 0
x_78 >= 0
x_79 >= 0
x_80 >= 0
x_81 >= 0
x_82 >= 0
x_83 >= 0
x_84 >= 0
x_85 >= 0
x_86 >= 0
x_87 >= 0
x_88 >= 0
x_89 >= 0
x_90 >= 0
x_91 >= 0
x_92 >= 0
x_93 >= 0
x_94 >= 0
x_95 >= 0
x_96 >= 0
x_97 >= 0
x_98 >= 0
x_99 >= 0
x_100 >= 0
x_101 >= 0
x_102 >= 0
x_103 >= 0
x_104 >= 0
x_105 >= 0
x_106 >= 0
x_107 >= 0
x_108 >= 0
x_109 >= 0
x_110 >= 0
x_111 >= 0
x_112 >= 0
x_113 >= 0
x_114 >= 0
x_115 >= 0
x_116 >= 0
x_117 >= 0
x_118 >= 0
x_119 >= 0
x_120 >= 0
x_121 >= 0
x_122 >= 0
x_123 >= 0
x_124 >= 0
x_125 >= 0
x_126 >= 0
x_127 >= 0
x_128 >= 0
x_129 >= 0
x_130 >= 0
x_131 >= 0
x_132 >= 0
x_133 >= 0
x_134 >= 0
x_135 >= 0
x_136 >= 0
x_137 >= 0
x_138 >= 0
x_139 >= 0
x_140 >= 0
x_141 >= 0
x_142 >= 0
x_143 >= 0
x_144 >= 0
x_145 >= 0
x_146 >= 0
x_147 >= 0
x_148 >= 0
x_149 >= 0
x_150 >= 0
x_151 >= 0
x_152 >= 0
x_153 >= 0
x_154 >= 0
x_155 >= 0
x_156 >= 0
x_157 >= 0
x_158 >= 0
x_159 >= 0
x_160 >= 0
x_161 >= 0
x_162 >= 0
x_163 >= 0
x_164 >= 0
x_165 >= 0
x_166 >= 0
x_167 >= 0
x_168 >= 0
x_169 >= 0
x_170 >= 0
x_171 >= 0
x_172 >= 0
x_173 >= 0
x_174 >= 0
x_175 >= 0
x_176 >= 0
x_177 >= 0
x_178 >= 0
x_179 >= 0
x_180 >= 0
x_181 >= 0
x_182 >= 0
x_183 >= 0
x_184 >= 0
x_185 >= 0
x_186 >= 0
x_187 >= 0
x_188 >= 0
x_189 >= 0
x_190 >= 0
x_191 >= 0
x_192 >= 0
x_193 >= 0
x_194 >= 0
x_195 >= 0
x_196 >= 0
x_197 >= 0
x_198 >= 0
x_199 >= 0
x_200 >= 0
x_201 >= 0
x_202 >= 0
x_203 >= 0
x_204 >= 0
x_205 >= 0
x_206 >= 0
x_207 >= 0
x_208 >= 0
x_209 >= 0
x_210 >= 0
x_211 >= 0
x_212 >= 0
x_213 >= 0
x_214 >= 0
x_215 >= 0
x_216 >= 0
x_217 >= 0
x_218 >= 0
x_219 >= 0
x_220 >= 0
x_221 >= 0
x_222 >= 0
x_223 >= 0
x_224 >= 0
x_225 >= 0
x_226 >= 0
x_227 >= 0
x_228 >= 0
x_229 >= 0
x_230 >= 0
x_231 >= 0
x_232 >= 0
x_233 >= 0
x_234 >= 0
x_235 >= 0
x_236 >= 0
x_237 >= 0
x_238 >= 0
x_239 >= 0
x_240 >= 0
x_241 >= 0
x_242 >= 0
x_243 >= 0
x_244 >= 0
x_245 >= 0
x_246 >= 0
x_247 >= 0
x_248 >= 0
x_249 >= 0
x_250 >= 0
x_251 >= 0
x_252 >= 0
x_253 >= 0
x_254 >= 0
x_255 >= 0
x_256 >= 0
x_257 >= 0
x_258 >= 0
x_259 >= 0
x_260 >= 0
x_261 >= 0
x_262 >= 0
x_263 >= 0
x_264 >= 0
x_265 >= 0
x_266 >= 0
x_267 >= 0
x_268 >= 0
x_269 >= 0
x_270 >= 0
x_271 >= 0
x_272 >= 0
x_273 >= 0
x_274 >= 0
x_275 >= 0
x_276 >= 0
x_277 >= 0
x_278 >= 0
x_279 >= 0
x_280 >= 0
x_281 >= 0
x_282 >= 0
x_283 >= 0
x_284 >= 0
x_285 >= 0
x_286 >= 0
x_287 >= 0
x_288 >= 0
x_289 >= 0
x_290 >= 0
x_291 >= 0
x_292 >= 0
x_293 >= 0
x_294 >= 0
x_295 >= 0
x_296 >= 0
x_297 >= 0
x_298 >= 0
x_299 >= 0
x_300 >= 0
x_301 >= 0
x_302 >= 0
x_303 >= 0
x_304 >= 0
x_305 >= 0
x_306 >= 0
x_307 >= 0
x_308 >= 0
x_309 >= 0
x_310 >= 0
x_311 >= 0
x_312 >= 0
x_313 >= 0
x_314 >= 0
x_315 >= 0
x_316 >= 0
x_317 >= 0
x_318 >= 0
x_319 >= 0
x_320 >= 0
x_321 >= 0
x_322 >= 0
x_323 >= 0
x_324 >= 0
x_325 >= 0
x_326 >= 0
x_327 >= 0
x_328 >= 0
x_329 >= 0
x_330 >= 0
x_331 >= 0
x_332 >= 0
x_333 >= 0
x_334 >= 0
x_335 >= 0
x_336 >= 0
x_337 >= 0
x_338 >= 0
x_339 >= 0
x_340 >= 0
x_341 >= 0
x_342 >= 0
x_343 >= 0
x_344 >= 0
x_345 >= 0
x_346 >= 0
x_347 >= 0
x_348 >= 0
x_349 >= 0
x_350 >= 0
x_351 >= 0
x_352 >= 0
x_353 >= 0
x_354 >= 0
x_355 >= 0
x_356 >= 0
x_357 >= 0
x_358 >= 0
x_359 >= 0
x_360 >= 0
x_361 >= 0
x_362 >= 0
x_363 >= 0
x_364 >= 0
x_365 >= 0
x_366 >= 0
x_367 >= 0
x_368 >= 0
x_369 >= 0
x_370 >= 0
x_371 >= 0
x_372 >= 0
x_373 >= 0
x_374 >= 0
x_375 >= 0
x_376 >= 0
x_377 >= 0
x_378 >= 0
x_379 >= 0
x_380 >= 0
x_381 >= 0
x_382 >= 0
x_383 >= 0
x_384 >= 0
x_385 >= 0
x_386 >= 0
x_387 >= 0
x_388 >= 0
x_389 >= 0
x_390 >= 0
x_391 >= 0
x_392 >= 0
x_393 >= 0
x_394 >= 0
x_395 >= 0
x_396 >= 0
x_397 >= 0
x_398 >= 0
x_399 >= 0
x_400 >= 0
x_401 >= 0
x_402 >= 0
x_403 >= 0
x_404 >= 0
x_405 >= 0
x_406 >= 0
x_407 >= 0
x_408 >= 0
x_409 >= 0
x_410 >= 0
x_411 >= 0
x_412 >= 0
x_413 >= 0
x_414 >= 0
x_415 >= 0
x_416 >= 0
x_417 >= 0
x_418 >= 0
x_419 >= 0
x_420 >= 0
x_421 >= 0
x_422 >= 0
x_423 >= 0
x_424 >= 0
x_425 >= 0
x_426 >= 0
x_427 >= 0
x_428 >= 0
x_429 >= 0
x_430 >= 0
x_431 >= 0
x_432 >= 0
x_433 >= 0
x_434 >= 0
x_435 >= 0
x_436 >= 0
x_437 >= 0
x_438 >= 0
x_439 >= 0
x_440 >= 0
x_441 >= 0
x_442 >= 0
x_443 >= 0
x_444 >= 0
x_445 >= 0
x_446 >= 0
x_447 >= 0
x_448 >= 0
x_449 >= 0
x_450 >= 0
x_451 >= 0
x_452 >= 0
x_453 >= 0
x_454 >= 0
x_455 >= 0
x_456 >= 0
x_457 >= 0
x_458 >= 0
x_459 >= 0
x_460 >= 0
x_461 >= 0
x_462 >= 0
x_463 >= 0
x_464 >= 0
x_465 >= 0
General
Binaries
y_1
y_2
y_3
y_4
y_5
y_6
y_7
y_8
y_9
y_10
y_11
y_12
y_13
y_14
y_15
y_16
y_17
y_18
y_19
y_20
y_21
y_22
y_23
y_24
y_25
y_26
y_27
y_28
y_29
y_30
y_31
y_32
y_33
y_34
y_35
y_36
y_37
y_38
y_39
y_40
y_41
y_42
y_43
y_44
y_45
y_46
y_47
y_48
y_49
y_50
y_51
y_52
y_53
y_54
y_55
y_56
y_57
y_58
y_59
y_60
y_61
y_62
y_63
y_64
y_65
y_66
y_67
y_68
y_69
y_70
y_71
y_72
y_73
y_74
y_75
y_76
y_77
y_78
y_79
y_80
y_81
y_82
y_83
y_84
y_85
y_86
y_87
y_88
y_89
y_90
y_91
y_92
y_93
y_94
y_95
y_96
y_97
y_98
y_99
y_100
y_101
y_102
y_103
y_104
y_105
y_106
y_107
y_108
y_109
y_110
y_111
y_112
y_113
y_114
y_115
y_116
y_117
y_118
y_119
y_120
y_121
y_122
y_123
y_124
y_125
y_126
y_127
y_128
y_129
y_130
y_131
y_132
y_133
y_134
y_135
y_136
y_137
y_138
y_139
y_140
y_141
y_142
y_143
y_144
y_145
y_146
y_147
y_148
y_149
y_150
y_151
y_152
y_153
y_154
y_155
y_156
y_157
y_158
y_159
y_160
y_161
y_162
y_163
y_164
y_165
y_166
y_167
y_168
y_169
y_170
y_171
y_172
y_173
y_174
y_175
y_176
y_177
y_178
y_179
y_180
y_181
y_182
y_183
y_184
y_185
y_186
y_187
y_188
y_189
y_190
y_191
y_192
y_193
y_194
y_195
y_196
y_197
y_198
y_199
y_200
y_201
y_202
y_203
y_204
y_205
y_206
y_207
y_208
y_209
y_210
y_211
y_212
y_213
y_214
y_215
y_216
y_217
y_218
y_219
y_220
y_221
y_222
y_223
y_224
y_225
y_226
y_227
y_228
y_229
y_230
y_231
y_232
y_233
y_234
y_235
y_236
y_237
y_238
y_239
y_240
y_241
y_242
y_243
y_244
y_245
y_246
y_247
y_248
y_249
y_250
y_251
y_252
y_253
y_254
y_255
y_256
y_257
y_258
y_259
y_260
y_261
y_262
y_263
y_264
y_265
y_266
y_267
y_268
y_269
y_270
y_271
y_272
y_273
y_274
y_275
y_276
y_277
y_278
y_279
y_280
y_281
y_282
y_283
y_284
y_285
y_286
y_287
y_288
y_289
y_290
y_291
y_292
y_293
y_294
y_295
y_296
y_297
y_298
y_299
y_300
y_301
y_302
y_303
y_304
y_305
y_306
y_307
y_308
y_309
y_310
y_311
y_312
y_313
y_314
y_315
y_316
y_317
y_318
y_319
y_320
y_321
y_322
y_323
y_324
y_325
y_326
y_327
y_328
y_329
y_330
y_331
y_332
y_333
y_334
y_335
y_336
y_337
y_338
y_339
y_340
y_341
y_342
y_343
y_344
y_345
y_346
y_347
y_348
y_349
y_350
y_351
y_352
y_353
y_354
y_355
y_356
y_357
y_358
y_359
y_360
y_361
y_362
y_363
y_364
y_365
y_366
y_367
y_368
y_369
y_370
y_371
y_372
y_373
y_374
y_375
y_376
y_377
y_378
y_379
y_380
y_381
y_382
y_383
y_384
y_385
y_386
y_387
y_388
y_389
y_390
y_391
y_392
y_393
y_394
y_395
y_396
y_397
y_398
y_399
y_400
y_401
y_402
y_403
y_404
y_405
y_406
y_407
y_408
y_409
y_410
y_411
y_412
y_413
y_414
y_415
y_416
y_417
y_418
y_419
y_420
y_421
y_422
y_423
y_424
y_425
y_426
y_427
y_428
y_429
y_430
y_431
y_432
y_433
y_434
y_435
y_436
y_437
y_438
y_439
y_440
y_441
y_442
y_443
y_444
y_445
y_446
y_447
y_448
y_449
y_450
y_451
y_452
y_453
y_454
End
